c Arquivo convertido de dwt__346.mtx
p edge 346 1440
e 1 2
e 1 5
e 1 6
e 1 17
e 1 18
e 1 22
e 2 3
e 2 5
e 2 6
e 2 7
e 2 17
e 2 18
e 2 20
e 3 4
e 3 6
e 3 7
e 3 8
e 3 18
e 3 20
e 3 21
e 4 7
e 4 8
e 4 20
e 4 21
e 4 25
e 5 6
e 5 9
e 5 10
e 5 17
e 5 22
e 5 23
e 5 26
e 6 7
e 6 9
e 6 10
e 6 11
e 6 22
e 6 23
e 6 24
e 6 27
e 7 8
e 7 10
e 7 11
e 7 12
e 7 23
e 7 24
e 7 25
e 7 28
e 8 11
e 8 12
e 8 21
e 8 24
e 8 25
e 8 29
e 9 10
e 9 13
e 9 14
e 9 22
e 9 26
e 9 27
e 9 31
e 10 11
e 10 13
e 10 14
e 10 15
e 10 23
e 10 26
e 10 27
e 10 28
e 11 12
e 11 14
e 11 15
e 11 16
e 11 24
e 11 27
e 11 28
e 11 29
e 12 15
e 12 16
e 12 25
e 12 28
e 12 29
e 12 34
e 13 14
e 13 26
e 13 31
e 14 15
e 15 16
e 16 29
e 16 34
e 17 18
e 17 22
e 17 36
e 17 38
e 18 19
e 18 20
e 18 23
e 18 36
e 18 48
e 18 49
e 18 50
e 19 20
e 19 49
e 19 50
e 19 51
e 20 21
e 20 24
e 20 37
e 20 50
e 20 51
e 20 52
e 21 25
e 21 37
e 21 39
e 22 23
e 22 26
e 22 36
e 22 38
e 22 40
e 23 24
e 23 27
e 23 38
e 23 53
e 23 54
e 23 55
e 23 59
e 23 341
e 24 25
e 24 28
e 24 39
e 24 55
e 24 56
e 24 57
e 24 60
e 24 341
e 25 29
e 25 37
e 25 39
e 25 41
e 26 27
e 26 31
e 26 38
e 26 40
e 26 42
e 27 28
e 27 32
e 27 40
e 27 54
e 27 58
e 27 59
e 27 60
e 28 29
e 28 33
e 28 41
e 28 56
e 28 59
e 28 60
e 28 61
e 29 34
e 29 39
e 29 41
e 29 43
e 30 31
e 31 32
e 31 40
e 31 42
e 32 33
e 33 34
e 34 35
e 34 41
e 34 43
e 36 38
e 36 44
e 36 46
e 36 48
e 36 49
e 37 39
e 37 45
e 37 47
e 37 51
e 37 52
e 38 40
e 38 44
e 38 46
e 38 53
e 38 54
e 38 58
e 39 41
e 39 45
e 39 47
e 39 56
e 39 57
e 39 61
e 40 42
e 40 53
e 40 58
e 40 59
e 40 62
e 41 43
e 41 57
e 41 60
e 41 61
e 41 65
e 42 58
e 42 62
e 43 61
e 43 65
e 44 46
e 44 48
e 44 53
e 45 47
e 45 52
e 45 57
e 46 48
e 46 53
e 47 52
e 47 57
e 48 49
e 48 53
e 48 54
e 48 66
e 48 67
e 48 75
e 48 79
e 49 50
e 49 53
e 49 54
e 49 55
e 49 66
e 49 67
e 50 51
e 50 54
e 50 55
e 50 56
e 50 67
e 50 68
e 50 71
e 50 72
e 51 52
e 51 55
e 51 56
e 51 57
e 51 68
e 51 69
e 52 56
e 52 57
e 52 68
e 52 69
e 52 78
e 52 82
e 53 54
e 53 58
e 53 59
e 53 70
e 53 71
e 53 75
e 53 79
e 53 83
e 54 55
e 54 58
e 54 59
e 54 70
e 54 71
e 54 341
e 54 342
e 55 56
e 55 59
e 55 60
e 55 67
e 55 68
e 55 71
e 55 72
e 55 80
e 55 81
e 55 96
e 55 341
e 55 342
e 56 57
e 56 60
e 56 61
e 56 72
e 56 73
e 56 341
e 56 342
e 57 60
e 57 61
e 57 72
e 57 73
e 57 78
e 57 82
e 57 86
e 58 59
e 58 62
e 58 63
e 58 79
e 58 83
e 58 84
e 58 89
e 59 60
e 59 62
e 59 63
e 59 83
e 59 84
e 59 85
e 59 90
e 59 342
e 59 343
e 60 61
e 60 64
e 60 65
e 60 84
e 60 85
e 60 86
e 60 91
e 60 342
e 60 343
e 61 64
e 61 65
e 61 82
e 61 85
e 61 86
e 61 92
e 62 63
e 62 83
e 62 89
e 63 84
e 63 90
e 63 342
e 63 343
e 64 65
e 64 85
e 64 91
e 64 342
e 64 343
e 65 86
e 65 92
e 66 67
e 66 75
e 66 76
e 67 71
e 67 75
e 67 76
e 67 80
e 68 69
e 68 72
e 68 77
e 68 78
e 68 81
e 69 77
e 69 78
e 70 71
e 70 79
e 70 80
e 71 72
e 71 76
e 71 79
e 71 80
e 71 96
e 72 73
e 72 77
e 72 81
e 72 82
e 72 96
e 73 81
e 73 82
e 74 346
e 75 76
e 75 79
e 75 97
e 75 98
e 75 102
e 76 80
e 76 95
e 76 96
e 76 97
e 76 98
e 76 99
e 77 78
e 77 81
e 77 95
e 77 96
e 77 99
e 77 100
e 77 101
e 78 82
e 78 100
e 78 101
e 78 106
e 79 80
e 79 83
e 79 97
e 79 102
e 79 103
e 79 107
e 80 81
e 80 84
e 80 95
e 80 96
e 80 102
e 80 103
e 80 104
e 81 82
e 81 85
e 81 95
e 81 96
e 81 104
e 81 105
e 81 106
e 82 86
e 82 101
e 82 105
e 82 106
e 82 110
e 83 84
e 83 89
e 83 102
e 83 107
e 83 108
e 83 113
e 84 85
e 84 90
e 84 107
e 84 108
e 84 109
e 84 114
e 85 86
e 85 91
e 85 108
e 85 109
e 85 110
e 85 115
e 86 92
e 86 106
e 86 109
e 86 110
e 86 116
e 87 88
e 88 89
e 89 90
e 89 107
e 89 113
e 90 91
e 90 108
e 90 114
e 91 92
e 91 109
e 91 115
e 92 93
e 92 110
e 92 116
e 93 94
e 95 96
e 95 98
e 95 99
e 95 100
e 96 103
e 96 104
e 96 105
e 97 98
e 97 102
e 97 120
e 97 121
e 97 125
e 98 99
e 98 103
e 98 120
e 98 121
e 98 126
e 99 100
e 99 103
e 99 105
e 100 101
e 100 105
e 100 123
e 100 124
e 100 127
e 101 106
e 101 123
e 101 124
e 101 128
e 102 103
e 102 107
e 102 120
e 102 125
e 102 126
e 102 129
e 103 104
e 103 105
e 103 108
e 103 109
e 103 121
e 103 125
e 103 126
e 103 127
e 103 130
e 104 105
e 105 106
e 105 108
e 105 109
e 105 123
e 105 126
e 105 127
e 105 128
e 105 131
e 106 110
e 106 124
e 106 127
e 106 128
e 106 132
e 107 108
e 107 113
e 107 125
e 107 129
e 107 130
e 107 135
e 108 109
e 108 114
e 108 126
e 108 129
e 108 130
e 108 131
e 108 136
e 109 110
e 109 115
e 109 127
e 109 130
e 109 131
e 109 132
e 109 137
e 110 116
e 110 128
e 110 131
e 110 132
e 110 138
e 111 112
e 112 113
e 113 114
e 113 129
e 113 135
e 114 115
e 114 130
e 114 136
e 115 116
e 115 131
e 115 137
e 116 117
e 116 132
e 116 138
e 117 118
e 119 345
e 120 121
e 120 125
e 120 141
e 120 142
e 120 146
e 121 122
e 121 126
e 121 141
e 121 142
e 121 143
e 122 123
e 122 126
e 122 127
e 122 142
e 122 143
e 122 144
e 123 124
e 123 127
e 123 143
e 123 144
e 123 145
e 124 128
e 124 144
e 124 145
e 124 149
e 125 126
e 125 129
e 125 141
e 125 146
e 125 147
e 125 150
e 126 127
e 126 130
e 126 131
e 126 146
e 126 147
e 126 148
e 126 151
e 127 128
e 127 130
e 127 131
e 127 147
e 127 148
e 127 149
e 127 152
e 128 132
e 128 145
e 128 148
e 128 149
e 128 153
e 129 130
e 129 135
e 129 146
e 129 150
e 129 151
e 129 155
e 130 131
e 130 136
e 130 147
e 130 150
e 130 151
e 130 152
e 130 156
e 131 132
e 131 137
e 131 148
e 131 151
e 131 152
e 131 153
e 131 157
e 132 138
e 132 149
e 132 152
e 132 153
e 132 158
e 133 134
e 134 135
e 135 136
e 135 150
e 135 155
e 136 137
e 136 151
e 136 156
e 137 138
e 137 152
e 137 157
e 138 139
e 138 153
e 138 158
e 139 140
e 141 142
e 141 146
e 141 160
e 141 161
e 141 164
e 142 143
e 142 144
e 142 147
e 142 160
e 142 161
e 142 162
e 143 144
e 144 145
e 144 148
e 144 161
e 144 162
e 144 163
e 145 149
e 145 162
e 145 163
e 145 169
e 146 147
e 146 150
e 146 160
e 146 164
e 146 166
e 146 170
e 147 148
e 147 151
e 147 164
e 147 166
e 147 167
e 147 172
e 148 149
e 148 152
e 148 166
e 148 167
e 148 169
e 148 173
e 149 153
e 149 163
e 149 167
e 149 169
e 149 175
e 150 151
e 150 155
e 150 164
e 150 170
e 150 172
e 150 176
e 151 152
e 151 156
e 151 157
e 151 166
e 151 170
e 151 172
e 151 173
e 151 178
e 152 153
e 152 156
e 152 157
e 152 167
e 152 172
e 152 173
e 152 175
e 152 179
e 153 158
e 153 169
e 153 173
e 153 175
e 153 181
e 154 155
e 155 156
e 155 170
e 155 176
e 156 157
e 156 172
e 156 178
e 157 158
e 157 173
e 157 179
e 158 159
e 158 175
e 158 181
e 160 161
e 160 164
e 160 182
e 160 183
e 160 186
e 161 162
e 161 165
e 161 182
e 161 183
e 161 184
e 162 163
e 162 168
e 162 183
e 162 184
e 162 185
e 163 169
e 163 184
e 163 185
e 163 191
e 164 165
e 164 166
e 164 170
e 164 171
e 164 182
e 164 186
e 164 188
e 164 192
e 165 166
e 165 170
e 165 171
e 165 172
e 166 167
e 166 171
e 166 172
e 166 173
e 166 186
e 166 188
e 166 189
e 166 194
e 167 168
e 167 169
e 167 172
e 167 173
e 167 174
e 167 188
e 167 189
e 167 191
e 167 195
e 168 169
e 168 173
e 168 174
e 168 175
e 169 174
e 169 175
e 169 185
e 169 189
e 169 191
e 169 197
e 170 171
e 170 172
e 170 176
e 170 177
e 170 186
e 170 192
e 170 194
e 170 198
e 171 172
e 171 176
e 171 177
e 171 178
e 172 173
e 172 177
e 172 178
e 172 188
e 172 192
e 172 194
e 172 195
e 172 200
e 173 174
e 173 175
e 173 179
e 173 180
e 173 189
e 173 194
e 173 195
e 173 197
e 173 201
e 174 175
e 174 179
e 174 180
e 174 181
e 175 180
e 175 181
e 175 191
e 175 195
e 175 197
e 175 203
e 176 177
e 176 192
e 176 198
e 177 178
e 178 194
e 178 200
e 179 180
e 179 195
e 179 201
e 180 181
e 181 197
e 181 203
e 182 183
e 182 186
e 182 204
e 182 205
e 182 209
e 183 184
e 183 187
e 183 204
e 183 205
e 183 207
e 184 185
e 184 190
e 184 205
e 184 207
e 184 208
e 185 191
e 185 207
e 185 208
e 185 215
e 186 187
e 186 188
e 186 192
e 186 204
e 186 209
e 186 211
e 186 216
e 187 188
e 187 193
e 188 189
e 188 194
e 188 209
e 188 211
e 188 213
e 188 218
e 189 190
e 189 191
e 189 195
e 189 211
e 189 213
e 189 215
e 189 219
e 190 191
e 190 196
e 191 197
e 191 208
e 191 213
e 191 215
e 191 221
e 192 193
e 192 194
e 192 198
e 192 209
e 192 216
e 192 218
e 192 223
e 193 194
e 193 199
e 194 195
e 194 200
e 194 211
e 194 216
e 194 218
e 194 219
e 194 225
e 195 196
e 195 197
e 195 201
e 195 213
e 195 218
e 195 219
e 195 221
e 195 226
e 196 197
e 196 202
e 197 203
e 197 215
e 197 219
e 197 221
e 197 228
e 198 216
e 198 223
e 200 218
e 200 225
e 201 219
e 201 226
e 203 221
e 203 228
e 204 205
e 204 209
e 204 230
e 204 231
e 204 242
e 204 247
e 205 206
e 205 207
e 205 211
e 205 230
e 205 231
e 205 232
e 206 207
e 206 231
e 206 232
e 206 233
e 207 208
e 207 213
e 207 232
e 207 233
e 207 234
e 208 215
e 208 233
e 208 234
e 208 246
e 208 252
e 209 210
e 209 211
e 209 216
e 209 217
e 209 235
e 209 236
e 209 242
e 209 247
e 209 253
e 210 211
e 210 216
e 210 217
e 210 235
e 210 236
e 210 237
e 210 248
e 210 254
e 211 212
e 211 213
e 211 218
e 211 236
e 211 237
e 211 238
e 212 213
e 212 237
e 212 238
e 212 239
e 213 214
e 213 215
e 213 219
e 213 238
e 213 239
e 213 240
e 214 215
e 214 220
e 214 221
e 214 239
e 214 240
e 214 241
e 214 251
e 214 257
e 215 220
e 215 221
e 215 240
e 215 241
e 215 246
e 215 252
e 215 258
e 216 217
e 216 218
e 216 223
e 216 224
e 216 247
e 216 253
e 216 260
e 217 218
e 217 223
e 217 224
e 217 225
e 217 248
e 217 254
e 217 255
e 217 261
e 218 219
e 218 224
e 218 225
e 218 226
e 218 237
e 218 238
e 218 249
e 218 254
e 218 255
e 218 262
e 219 220
e 219 221
e 219 225
e 219 226
e 219 227
e 219 238
e 219 239
e 219 250
e 219 256
e 219 257
e 219 263
e 220 221
e 220 226
e 220 227
e 220 228
e 220 251
e 220 256
e 220 257
e 220 264
e 221 227
e 221 228
e 221 252
e 221 258
e 221 265
e 222 223
e 223 224
e 223 253
e 223 260
e 224 225
e 225 226
e 225 255
e 225 262
e 226 227
e 226 256
e 226 263
e 227 228
e 228 229
e 228 258
e 228 265
e 230 231
e 230 242
e 230 243
e 231 232
e 231 237
e 231 238
e 231 242
e 231 243
e 231 249
e 232 233
e 232 237
e 232 238
e 232 239
e 233 234
e 233 238
e 233 239
e 233 245
e 233 246
e 233 250
e 234 245
e 234 246
e 235 236
e 235 247
e 235 248
e 236 237
e 236 247
e 236 248
e 236 249
e 237 238
e 237 243
e 237 248
e 237 249
e 238 239
e 239 240
e 239 245
e 239 250
e 239 251
e 240 241
e 240 250
e 240 251
e 240 252
e 241 251
e 241 252
e 242 243
e 242 247
e 242 249
e 242 267
e 242 268
e 242 279
e 242 284
e 243 247
e 243 249
e 243 267
e 243 268
e 243 274
e 244 344
e 245 246
e 245 250
e 245 252
e 245 270
e 245 271
e 245 276
e 246 250
e 246 252
e 246 270
e 246 271
e 246 283
e 246 290
e 247 248
e 247 249
e 247 253
e 247 254
e 247 272
e 247 273
e 247 279
e 247 284
e 247 291
e 248 249
e 248 253
e 248 254
e 248 255
e 248 272
e 248 273
e 248 274
e 248 285
e 248 292
e 249 254
e 249 255
e 249 268
e 249 273
e 249 274
e 249 293
e 250 251
e 250 252
e 250 256
e 250 257
e 250 270
e 250 276
e 250 277
e 250 294
e 251 252
e 251 256
e 251 257
e 251 258
e 251 276
e 251 277
e 251 278
e 251 289
e 251 295
e 252 257
e 252 258
e 252 277
e 252 278
e 252 283
e 252 290
e 252 296
e 253 254
e 253 260
e 253 261
e 253 284
e 253 291
e 253 298
e 254 255
e 254 260
e 254 261
e 254 262
e 254 285
e 254 292
e 254 293
e 255 261
e 255 262
e 255 292
e 255 293
e 255 300
e 256 257
e 256 263
e 256 264
e 256 294
e 256 295
e 256 301
e 257 258
e 257 263
e 257 264
e 257 265
e 257 289
e 257 294
e 257 295
e 258 264
e 258 265
e 258 290
e 258 296
e 258 303
e 259 260
e 260 261
e 260 291
e 260 298
e 261 262
e 261 292
e 262 293
e 262 300
e 263 264
e 263 294
e 263 301
e 264 265
e 264 295
e 265 266
e 265 296
e 265 303
e 267 268
e 267 279
e 267 280
e 268 269
e 268 274
e 268 275
e 268 279
e 268 280
e 268 281
e 269 270
e 269 274
e 269 275
e 269 276
e 269 280
e 269 281
e 269 282
e 270 271
e 270 275
e 270 276
e 270 281
e 270 282
e 270 283
e 271 282
e 271 283
e 272 273
e 272 284
e 272 285
e 273 274
e 273 284
e 273 285
e 273 286
e 274 275
e 274 285
e 274 286
e 274 287
e 274 293
e 275 276
e 275 286
e 275 287
e 275 288
e 275 293
e 275 294
e 276 277
e 276 287
e 276 288
e 276 289
e 276 294
e 277 278
e 277 288
e 277 289
e 277 290
e 278 289
e 278 290
e 279 280
e 279 284
e 279 305
e 279 306
e 279 309
e 280 281
e 280 282
e 280 286
e 280 305
e 280 306
e 280 307
e 281 282
e 282 283
e 282 288
e 282 306
e 282 307
e 282 308
e 283 290
e 283 307
e 283 308
e 283 312
e 284 285
e 284 286
e 284 291
e 284 292
e 284 305
e 284 309
e 284 310
e 284 313
e 285 286
e 285 291
e 285 292
e 286 287
e 286 288
e 286 293
e 286 309
e 286 310
e 286 311
e 286 314
e 287 288
e 288 289
e 288 290
e 288 294
e 288 310
e 288 311
e 288 312
e 289 290
e 289 295
e 289 296
e 290 295
e 290 296
e 290 308
e 290 311
e 290 312
e 290 316
e 291 292
e 291 293
e 291 298
e 291 299
e 291 309
e 291 313
e 291 314
e 291 319
e 292 293
e 292 298
e 292 299
e 292 300
e 293 294
e 293 299
e 293 300
e 293 301
e 293 310
e 293 313
e 293 314
e 293 315
e 294 295
e 294 296
e 294 300
e 294 301
e 294 302
e 294 314
e 294 315
e 294 316
e 295 296
e 295 301
e 295 302
e 295 303
e 296 302
e 296 303
e 296 312
e 296 315
e 296 316
e 296 322
e 297 298
e 298 299
e 298 313
e 298 319
e 299 300
e 300 301
e 300 320
e 301 302
e 301 321
e 302 303
e 303 304
e 303 316
e 303 322
e 305 306
e 305 309
e 305 325
e 306 307
e 306 310
e 306 326
e 307 308
e 307 311
e 307 327
e 308 312
e 308 328
e 309 310
e 309 313
e 309 329
e 310 311
e 310 314
e 310 330
e 311 312
e 311 315
e 311 331
e 312 316
e 312 332
e 313 314
e 313 319
e 313 333
e 314 315
e 314 320
e 314 334
e 315 316
e 315 321
e 315 335
e 316 322
e 316 336
e 317 318
e 318 319
e 319 320
e 320 321
e 320 338
e 321 322
e 321 339
e 322 323
e 323 324
e 325 329
e 326 330
e 327 331
e 328 332
e 329 333
e 330 334
e 331 335
e 332 336
e 333 337
e 334 338
e 335 339
e 336 340
e 342 343
